Homework/HW6/Irrigation_Dual.gms.log

--- Job Irrigation_Dual.gms Start 12/05/25 13:33:47 51.1.0 2d039df5 DAX-DAC arm 64bit/macOS
--- Applying:
    /Library/Frameworks/GAMS.framework/Versions/51/Resources/gmsprmun.txt
--- GAMS Parameters defined
    Input "/Users/anabelle/Documents/Systems Analysis/CEE-5410-Myers/Homework/HW6/Irrigation_Dual.gms"
    PageSize 0
    ScrDir "/Users/anabelle/Documents/Systems Analysis/CEE-5410-Myers/Homework/HW6/225a/"
    SysDir /Library/Frameworks/GAMS.framework/Versions/51/Resources/
    LogOption 3
    AppendLog 1
    ErrMsg 1
    ErrorLog 99
    IDE 1
    LstTitleLeftAligned 1
Licensee: GAMS Demo, for EULA and demo limitations see   G250826+0003Cc-GEN
          https://www.gams.com/latest/docs/UG%5FLicense.html         DC0000
          /Library/Frameworks/GAMS.framework/Versions/51/Resources/gamslice.txt
          v:2                                                              
          Demo license for demonstration and instructional purposes only
System information: 8 physical cores and 8 Gb physical memory detected
GAMS 51.1.0   Copyright (C) 1987-2025 GAMS Development. All rights reserved
--- Starting compilation
--- Irrigation_Dual.gms(83) 3 Mb
--- Starting execution: elapsed 0:00:00.002
--- Generating LP model PLANT_DUAL
--- Irrigation_Dual.gms(78) 4 Mb
---   3 rows  5 columns  12 non-zeroes
--- Range statistics (absolute non-zero finite values)
--- RHS       [min, max] : [ 1.000E+02, 1.200E+02] - Zero values observed as well
--- Bound     [min, max] : [        NA,        NA] - Zero values observed as well
--- Matrix    [min, max] : [ 1.000E+00, 1.800E+04]
--- Executing CPLEX (Solvelink=2): elapsed 0:00:00.005

IBM ILOG CPLEX   51.1.0 2d039df5 Sep 13, 2025          DAC arm 64bit/macOS    

*** This solver runs with a demo license. No commercial use.
--- GMO setup time: 0.00s
--- GMO memory 0.50 Mb (peak 0.50 Mb)
--- Dictionary memory 0.00 Mb
--- Cplex 22.1.2.0 link memory 0.00 Mb (peak 0.00 Mb)
--- Starting Cplex

Version identifier: 22.1.2.0 | 2024-12-02 | 8bd2200c8
CPXPARAM_Advance                                 0
CPXPARAM_Simplex_Display                         2
CPXPARAM_MIP_Display                             4
CPXPARAM_MIP_Pool_Capacity                       0
3036                                             1
CPXPARAM_MIP_Tolerances_AbsMIPGap                0
Tried aggregator 1 time.
LP Presolve eliminated 0 rows and 1 columns.
Reduced LP has 2 rows, 4 columns, and 7 nonzeros.
Presolve time = 0.00 sec. (0.00 ticks)

Iteration      Dual Objective            In Variable           Out Variable
     1         1080000.000000                Y(July)RES_CONS_DUAL(Gra slack
     2         1160000.000000                Y(Land)RES_CONS_DUAL(Hay slack

--- LP status (1): optimal.
--- Cplex Time: 0.00sec (det. 0.00 ticks)


Optimal solution found
Objective:      1160000.000000

--- Reading solution for model PLANT_DUAL
*** Status: Normal completion
--- Job Irrigation_Dual.gms Stop 12/05/25 13:33:47 elapsed 0:00:00.027
